0000000000000000
0011100000011100
0001110000111100
0001110000111100
0001111000111000
0000111100111000
0001111100111000
0001111111110000
0001111111110000
0011110111100000
0011100011100000
0011100011110000
0111100001111000
0111100000111000
0111000000111100
0110000000001100
